# IMPORTANT - THE STAGES ARE ASSUMED TO BE IN TIME-ORDER.

set Stages := FirstStage SecondStage ;

set StageVariables[FirstStage] :=  DevotedAcreage[*];

set StageVariables[SecondStage] := QuantitySubQuotaSold[*]
                                   QuantitySuperQuotaSold[*]
                                   QuantityPurchased[*];

param StageCost := FirstStage  FirstStageCost
                   SecondStage SecondStageCost ;
